GPU_version/outputs/rc107.out
Total number of lines in the file: 110
Total number of nodes including depot: 101
Customer 1: (40, 50), Demand: 0, Time Window: [0, 240], Service Time: 0
Customer 2: (25, 85), Demand: 20, Time Window: [125, 191], Service Time: 10
Customer 3: (22, 75), Demand: 30, Time Window: [32, 97], Service Time: 10
Customer 4: (22, 85), Demand: 10, Time Window: [101, 146], Service Time: 10
Customer 5: (20, 80), Demand: 40, Time Window: [71, 193], Service Time: 10
calling MST kernel
Post Processing Route
Post 2 opt Processing Route
2-opt between 27 and 29 improved cost from 1803.68 to 1801.06
Elapsed time: 0.695861 seconds
Final Route: 
Route #1: 90 69 
Route #2: 98 53 88 60 78 
Route #3: 73 79 7 8 46 4 45 
Route #4: 5 3 1 6 
Route #5: 2 12 11 10 9 13 
Route #6: 14 47 17 15 16 55 100 70 
Route #7: 65 82 99 52 57 86 74 58 77 
Route #8: 25 23 21 48 
Route #9: 18 19 49 20 22 24 
Route #10: 75 87 59 97 66 
Route #11: 83 80 91 
Route #12: 92 95 62 67 50 34 
Route #13: 31 29 27 26 28 30 32 33 
Route #14: 84 85 63 76 89 
Route #15: 51 56 64 
Route #16: 94 93 
Route #17: 71 96 54 
Route #18: 72 41 39 42 44 43 40 
Route #19: 38 37 36 35 
Route #20: 81 61 68 
Route #21: Total Distance: 1803.68
Final route is valid
