outputs/rc107.txt.out
filename: RC107
Vehicles: 25, Capacity: 200
Total customers : 101
No of routes: 20
Route #1: 90 69
Route #2: 98 53 88 60 78
Route #3: 12 14 47 17 16 15 11 10
Route #4: 9 13 73 79
Route #5: 2 6 7 8 46 45 4
Route #6: 5 3 1 70 100 55
Route #7: 65 82 99 52 57 86 74 58 77
Route #8: 25 23 21 48
Route #9: 20 49 18 19 22 24
Route #10: 87 59 75 97 66
Route #11: 83 91 80
Route #12: 92 95 62 50 34
Route #13: 31 29 27 26 28 30 32 33
Route #14: 67 84 85 63 76 89
Route #15: 56 51 64
Route #16: 94 93
Route #17: 96 71 54
Route #18: 72 41 39 38 35 36 37 40
Route #19: 42 44 43
Route #20: 81 61 68
Cost 1694
